(declare-const x0 Real)
(assert (<= 0.000010 x0))
(declare-const x1 Real)
(assert (<= 0.000010 x1))
(declare-const x2 Real)
(assert (<= 0.000010 x2))
(declare-const x3 Real)
(assert (<= 0.000010 x3))
(declare-const x4 Real)
(assert (<= 0.000010 x4))
(declare-const x5 Real)
(assert (<= 0.000010 x5))
(declare-const x6 Real)
(assert (<= 0.000010 x6))
(declare-const x7 Real)
(assert (<= 0.000010 x7))
(declare-const x8 Real)
(assert (<= 0.000010 x8))
(declare-const x9 Real)
(assert (<= 0.000010 x9))

(assert (= (+ (* 1.0 x0) (* (- 2.0) x1) (* 2.0 x2) (* 1.0 x5) (* 1.0 x9)) 2.0))
(assert (= (+ (* 1.0 x3) (* (- 2.0) x4) (* 1.0 x5) (* 1.0 x6)) 1.0))
(assert (= (+ (* 1.0 x2) (* 1.0 x6) (* 1.0 x7) (* 2.0 x8) (* 1.0 x9)) 1.0))

(minimize
	(+ (* x0 (+ (- 6.089000) (log (/ x0 (+ x0 x1 x2 x3 x4 x5 x6 x7 x8 x9))))) (* x1 (+ (- 17.164000) (log (/ x1 (+ x0 x1 x2 x3 x4 x5 x6 x7 x8 x9))))) (* x2 (+ (- 34.054000) (log (/ x2 (+ x0 x1 x2 x3 x4 x5 x6 x7 x8 x9))))) (* x3 (+ (- 5.914000) (log (/ x3 (+ x0 x1 x2 x3 x4 x5 x6 x7 x8 x9))))) (* x4 (+ (- 24.721000) (log (/ x4 (+ x0 x1 x2 x3 x4 x5 x6 x7 x8 x9))))) (* x5 (+ (- 14.986000) (log (/ x5 (+ x0 x1 x2 x3 x4 x5 x6 x7 x8 x9))))) (* x6 (+ (- 24.100000) (log (/ x6 (+ x0 x1 x2 x3 x4 x5 x6 x7 x8 x9))))) (* x7 (+ (- 10.708000) (log (/ x7 (+ x0 x1 x2 x3 x4 x5 x6 x7 x8 x9))))) (* x8 (+ (- 26.662000) (log (/ x8 (+ x0 x1 x2 x3 x4 x5 x6 x7 x8 x9))))) (* x9 (+ (- 22.179000) (log (/ x9 (+ x0 x1 x2 x3 x4 x5 x6 x7 x8 x9))))))
)
(check-sat)
(get-objectives)
(exit)

